c Path planning problem for ProbSAT
c Generated by gen_cnf.py
p cnf 60 73
1 2 3 4 0
5 6 7 8 0
9 10 11 12 0
13 14 15 16 0
17 18 19 20 0
21 22 23 24 0
25 26 27 28 0
29 30 31 32 0
33 34 35 36 0
37 38 39 40 0
41 42 43 44 0
45 46 47 48 0
49 50 51 52 0
53 54 55 56 0
57 58 59 60 0
-1 5 7 6 0
-2 6 8 5 0
-3 7 5 8 0
-4 8 6 7 0
-5 9 11 10 0
-6 10 12 9 0
-7 11 9 12 0
-8 12 10 11 0
-9 13 15 14 0
-10 14 16 13 0
-11 15 13 16 0
-12 16 14 15 0
-13 17 19 18 0
-14 18 20 17 0
-15 19 17 20 0
-16 20 18 19 0
-17 21 23 22 0
-18 22 24 21 0
-19 23 21 24 0
-20 24 22 23 0
-21 25 27 26 0
-22 26 28 25 0
-23 27 25 28 0
-24 28 26 27 0
-25 29 31 30 0
-26 30 32 29 0
-27 31 29 32 0
-28 32 30 31 0
-29 33 35 34 0
-30 34 36 33 0
-31 35 33 36 0
-32 36 34 35 0
-33 37 39 38 0
-34 38 40 37 0
-35 39 37 40 0
-36 40 38 39 0
-37 41 43 42 0
-38 42 44 41 0
-39 43 41 44 0
-40 44 42 43 0
-41 45 47 46 0
-42 46 48 45 0
-43 47 45 48 0
-44 48 46 47 0
-45 49 51 50 0
-46 50 52 49 0
-47 51 49 52 0
-48 52 50 51 0
-49 53 55 54 0
-50 54 56 53 0
-51 55 53 56 0
-52 56 54 55 0
-53 57 59 58 0
-54 58 60 57 0
-55 59 57 60 0
-56 60 58 59 0
1 0
60 0
